NAME : a280.tsp
TYPE : TOUR
DIMENSION : 280
TOUR_LENGTH : 2836.208197095186
TOUR_SECTION
1
280
3
279
278
277
4
5
6
276
275
274
273
272
271
16
9
7
8
10
11
12
13
15
14
24
23
25
22
26
27
28
32
31
30
125
124
123
122
121
120
119
157
158
159
160
174
107
108
109
110
111
112
89
81
82
83
88
113
114
115
117
118
62
61
60
43
42
41
40
35
34
33
36
37
38
39
49
50
51
52
53
48
54
55
47
46
45
56
57
44
59
58
64
63
116
86
87
84
85
65
66
67
68
69
70
71
72
73
74
75
76
77
78
79
80
94
95
96
97
98
93
90
91
92
99
100
101
102
103
104
105
106
173
171
172
170
169
168
167
166
165
164
163
162
161
175
176
177
151
152
156
153
155
154
127
126
29
128
21
20
19
18
17
133
132
131
130
129
150
178
179
180
181
182
183
184
185
186
187
188
189
190
191
192
193
194
195
196
197
198
199
200
201
202
203
204
205
206
144
145
146
143
142
147
141
140
148
149
139
138
137
136
135
134
270
269
268
267
266
265
264
263
262
261
260
259
258
257
254
256
255
252
253
208
209
210
207
212
211
214
215
213
216
217
220
221
222
219
218
223
224
225
226
227
228
229
230
251
250
249
248
247
244
245
246
231
232
233
234
235
236
237
238
239
240
241
243
242
2
-1
